NAME lp_typeD_779
OBJSENSE MAX
ROWS
 N  OBJ
 L  c0      
 L  c1      
 G  c2      
 G  c3      
 G  c4      
 L  c_key_upper
 G  c_key_lower
 G  _chain_constr_1
 G  _chain_constr_2
 G  _chain_constr_3
 G  _chain_cycle
COLUMNS
    x0        OBJ       9.5172839145760135e-01
    x0        c0        1.9276615754645734e+00
    x0        c1        1.9858642077673074e+00
    x0        c2        1.5016995511756261e+00
    x0        c3        1.8288040393649314e+00
    x0        c4        5.3453238533828307e-01
    x0        c_key_upper  1.16611351200324
    x0        c_key_lower  1.16611351200324
    x1        OBJ       1.2386452015997629e+00
    x1        c0        0.546353778647702
    x1        c1        1.5215265891450116e+00
    x1        c2        1.7548921183861310e+00
    x1        c3        6.8020697725269907e-01
    x1        c4        8.6759409586358371e-01
    x1        c_key_upper  1.9293043403749557e+00
    x1        c_key_lower  1.9293043403749557e+00
    x2        OBJ       1.2431662466936886e+00
    x2        c0        5.0947253802947245e-01
    x2        c1        5.9286998914201006e-01
    x2        c2        7.2012652831214052e-01
    x2        c3        5.2250013050206379e-01
    x2        c4        5.6767887439539422e-01
    x2        c_key_upper  1.3709704773153346e+00
    x2        c_key_lower  1.3709704773153346e+00
    x3        OBJ       1.0848213368295010e+00
    x3        c0        1.4704398713796052e+00
    x3        c1        5.2920413210521788e-01
    x3        c2        1.3488410067679442e+00
    x3        c3        1.9751540374051915e+00
    x3        c4        1.6077734411083064e+00
    x3        c_key_upper  1.2299284745843844e+00
    x3        c_key_lower  1.2299284745843844e+00
    x4        OBJ       1.1304318114958885e+00
    x4        c0        0.688262893951594
    x4        c1        1.9585604400958621e+00
    x4        c2        1.0550707856876214e+00
    x4        c3        1.2271858322021334e+00
    x4        c4        5.9100312636538277e-01
    x4        c_key_upper  1.2536918272023148e+00
    x4        c_key_lower  1.2536918272023148e+00
    x5        OBJ       1.1166658308436923e+00
    x5        c0        1.9582762105776190e+00
    x5        c1        1.9028777910139405e+00
    x5        c2        8.1861543076831167e-01
    x5        c3        1.1854060724838611e+00
    x5        c4        1.7870831360903612e+00
    x5        c_key_upper  1.3390325049815845e+00
    x5        c_key_lower  1.3390325049815845e+00
    _chain_var_0  _chain_constr_1  -1
    _chain_var_0  _chain_cycle  1
    _chain_var_1  _chain_constr_1  1
    _chain_var_1  _chain_constr_2  -1
    _chain_var_2  _chain_constr_2  1
    _chain_var_2  _chain_constr_3  -1
    _chain_var_3  _chain_constr_3  1
    _chain_var_3  _chain_cycle  -1
RHS
    RHS1      c0        2.9388661310215586e+01
    RHS1      c1        4.9975925688354089e+01
    RHS1      c2        8.99830367897707
    RHS1      c3        1.0770252509464749e+01
    RHS1      c4        9.87781450785131
    RHS1      c_key_upper  4.1445205682309066e+01
    RHS1      c_key_lower  2.0722602841154533e+01
    RHS1      _chain_constr_1  10
    RHS1      _chain_constr_2  10
    RHS1      _chain_constr_3  10
    RHS1      _chain_cycle  10
BOUNDS
 UP BND1      x0        10
 UP BND1      x1        10
 UP BND1      x2        10
 UP BND1      x3        10
 UP BND1      x4        10
 UP BND1      x5        10
 UP BND1      _chain_var_0  100
 UP BND1      _chain_var_1  100
 UP BND1      _chain_var_2  100
 UP BND1      _chain_var_3  100
ENDATA
